141 328 453 756 850 862 1299 1315 1525 2005 2106 2154 2314 2401 2599 2711 2755 2768 2809 2898 3030 3514 3698 3719 3779 3879 4861 5006 5029 5056 5418 5703 5947 6015 6666 6706 7347 7743 8020 8289 8402 8489 8491 8554 8928 9050 9250 9817 

